
  17    4
  10   10   10   10

   0   0   0   0   0   3 2 4 5 
  10  10  10  10  10   2 8 3 
   1  10  10  10  10   4 16 11 7 6 
  10  10  10  10  10   3 16 12 7 
   5  10  10  10  10   3 15 9 8 
   6  10  10  10  10   3 14 10 9 
   5  10  10  10  10   3 15 14 9 
   3  10  10  10  10   3 14 13 10 
   9  10  10  10  10   1 13 
   6  10  10  10  10   1 12 
   4  10  10  10  10   1 12 
   1  10  10  10  10   1 17
   1  10  10  10  10   1 17
   1  10  10  10  10   1 17
   6  10  10  10  10   1 17
   7  10  10  10  10   1 17
   0   0   0   0   0   0 
